models/n4k1.lp
\ LP format - for model browsing. Use MPS format to capture full model detail.
Minimize
  6.572255627334192 x[0,1,1] + 3.210125899965921 x[0,2,1]
   + 2.343449807898472 x[0,3,1] + 2.85276721973091 x[0,4,1]
   + 7.593645187411208 x[1,2,1] + 4.329944851985871 x[1,3,1]
   + 5.527388843341348 x[1,4,1] + 6.572255627334192 x[1,5,1]
   + 7.593645187411208 x[2,1,1] + 3.703410618604913 x[2,3,1]
   + 2.067246321737674 x[2,4,1] + 3.210125899965921 x[2,5,1]
   + 4.329944851985871 x[3,1,1] + 3.703410618604913 x[3,2,1]
   + 1.951560723574285 x[3,4,1] + 2.343449807898472 x[3,5,1]
   + 5.527388843341348 x[4,1,1] + 2.067246321737674 x[4,2,1]
   + 1.951560723574285 x[4,3,1] + 2.85276721973091 x[4,5,1] + 0 u[1,1]
   + 0 u[2,1] + 0 u[3,1] + 0 u[4,1]
Subject To
 Start_1: x[0,1,1] + x[0,2,1] + x[0,3,1] + x[0,4,1] + x[0,5,1] = 1
 Finish_1: x[0,5,1] + x[1,5,1] + x[2,5,1] + x[3,5,1] + x[4,5,1] = 1
 Visit_1: x[0,1,1] + x[2,1,1] + x[3,1,1] + x[4,1,1] = 1
 Visit_2: x[0,2,1] + x[1,2,1] + x[3,2,1] + x[4,2,1] = 1
 Visit_3: x[0,3,1] + x[1,3,1] + x[2,3,1] + x[4,3,1] = 1
 Visit_4: x[0,4,1] + x[1,4,1] + x[2,4,1] + x[3,4,1] = 1
 Leave_1_1: x[0,1,1] - x[1,2,1] - x[1,3,1] - x[1,4,1] - x[1,5,1] + x[2,1,1]
   + x[3,1,1] + x[4,1,1] = 0
 Leave_2_1: x[0,2,1] + x[1,2,1] - x[2,1,1] - x[2,3,1] - x[2,4,1] - x[2,5,1]
   + x[3,2,1] + x[4,2,1] = 0
 Leave_3_1: x[0,3,1] + x[1,3,1] + x[2,3,1] - x[3,1,1] - x[3,2,1] - x[3,4,1]
   - x[3,5,1] + x[4,3,1] = 0
 Leave_4_1: x[0,4,1] + x[1,4,1] + x[2,4,1] + x[3,4,1] - x[4,1,1] - x[4,2,1]
   - x[4,3,1] - x[4,5,1] = 0
 R10: 9 x[0,1,1] + 9 x[0,2,1] + 3 x[0,3,1] + 6 x[0,4,1] + 9 x[1,2,1]
   + 3 x[1,3,1] + 6 x[1,4,1] + 9 x[2,1,1] + 3 x[2,3,1] + 6 x[2,4,1]
   + 9 x[3,1,1] + 9 x[3,2,1] + 6 x[3,4,1] + 9 x[4,1,1] + 9 x[4,2,1]
   + 3 x[4,3,1] <= 32
Bounds
Binaries
 x[0,1,1] x[0,2,1] x[0,3,1] x[0,4,1] x[0,5,1] x[1,2,1] x[1,3,1] x[1,4,1]
 x[1,5,1] x[2,1,1] x[2,3,1] x[2,4,1] x[2,5,1] x[3,1,1] x[3,2,1] x[3,4,1]
 x[3,5,1] x[4,1,1] x[4,2,1] x[4,3,1] x[4,5,1]
End
