solutions/n4k1.sol
# Objective value = 1.7478155724929287e+01
x[0,1,1] 0
x[0,2,1] 0
x[0,3,1] 1
x[0,4,1] 0
x[0,5,1] 0
x[1,2,1] 0
x[1,3,1] 0
x[1,4,1] 1
x[1,5,1] 0
x[2,1,1] 0
x[2,3,1] 0
x[2,4,1] 0
x[2,5,1] 1
x[3,1,1] 1
x[3,2,1] 0
x[3,4,1] 0
x[3,5,1] 0
x[4,1,1] 0
x[4,2,1] 1
x[4,3,1] 0
x[4,5,1] 0
u[1,1] 0
u[2,1] 0
u[3,1] 0
u[4,1] 0
